NAME : problems/30-tsp/instance-12.tsp
COMMENT : No Comment
TYPE : TSP
DIMENSION: 30
EDGE_WEIGHT_TYPE : EUC_2D
NODE_COORD_SECTION
1 2670 4882 
2 1754 9564 
3 7888 1697 
4 8781 1926 
5 607 8856 
6 9912 8853 
7 7195 5083 
8 3234 3924 
9 9063 1625 
10 2014 9867 
11 1572 7098 
12 6705 760 
13 6642 5722 
14 4428 977 
15 8774 7287 
16 5028 9282 
17 9932 9795 
18 6582 1154 
19 7726 1272 
20 1637 440 
21 351 9913 
22 4395 4815 
23 7242 8950 
24 7609 892 
25 5103 6782 
26 6285 303 
27 3637 4510 
28 4520 7037 
29 591 5096 
30 3353 3694 
EOF
